(set-info :original "/tmp/sea-cwp36lw7/24.pp.ms.o.bc")
(set-info :authors "SeaHorn v.14.0.0-rc0")
(declare-rel verifier.error (Bool Bool Bool ))
(declare-rel main@entry ())
(declare-rel main@verifier.error.split ())
(declare-var main@%_86_0 Int )
(declare-var main@%_87_0 Int )
(declare-var main@%_88_0 Int )
(declare-var main@%_89_0 Int )
(declare-var main@%_90_0 Int )
(declare-var main@%_91_0 Int )
(declare-var main@%_92_0 Int )
(declare-var main@%_93_0 Int )
(declare-var main@%_94_0 Bool )
(declare-var main@%_82_0 Int )
(declare-var main@%.4.i_0 Int )
(declare-var main@%_83_0 Int )
(declare-var main@%.not7.i_0 Bool )
(declare-var main@%.5.i_2 Int )
(declare-var main@%.45.i_0 Int )
(declare-var main@%_78_0 Int )
(declare-var main@%_75_0 Bool )
(declare-var main@%spec.select12.v.i_0 Int )
(declare-var main@%spec.select12.i_0 Int )
(declare-var main@%_76_0 Bool )
(declare-var main@%spec.select13.v.i_0 Int )
(declare-var main@%spec.select13.i_0 Int )
(declare-var main@%.not.i_0 Bool )
(declare-var main@%.56.i_2 Int )
(declare-var main@%_62_0 Int )
(declare-var main@%_63_0 Bool )
(declare-var main@%_64_0 Int )
(declare-var main@%_65_0 Int )
(declare-var main@%_66_0 Bool )
(declare-var main@%.neg.i_0 Int )
(declare-var main@%_68_0 Int )
(declare-var main@%_69_0 Bool )
(declare-var main@%_70_0 Int )
(declare-var main@%_71_0 Int )
(declare-var main@%_72_0 Bool )
(declare-var main@%.neg8.i_0 Int )
(declare-var main@%.01.i_6 Int )
(declare-var main@%.0.i_6 Int )
(declare-var main@%_21_0 Bool )
(declare-var main@%_22_0 Bool )
(declare-var main@%_23_0 Bool )
(declare-var main@%_24_0 Bool )
(declare-var main@%_25_0 Bool )
(declare-var main@%_26_0 Bool )
(declare-var main@%_27_0 Bool )
(declare-var main@%_28_0 Bool )
(declare-var main@%_29_0 Bool )
(declare-var main@%_30_0 Bool )
(declare-var main@%_31_0 Bool )
(declare-var main@%_32_0 Bool )
(declare-var main@%_33_0 Bool )
(declare-var main@%_34_0 Bool )
(declare-var main@%_35_0 Bool )
(declare-var main@%_36_0 Bool )
(declare-var main@%_37_0 Bool )
(declare-var main@%_38_0 Bool )
(declare-var main@%_39_0 Bool )
(declare-var main@%_40_0 Bool )
(declare-var main@%_41_0 Bool )
(declare-var main@%_42_0 Bool )
(declare-var main@%_43_0 Bool )
(declare-var main@%_44_0 Bool )
(declare-var main@entry_0 Bool )
(declare-var main@%_0_0 Int )
(declare-var main@%_1_0 Int )
(declare-var main@%_2_0 Int )
(declare-var main@%_3_0 Int )
(declare-var main@%_4_0 Int )
(declare-var main@%_5_0 Int )
(declare-var main@%_6_0 Int )
(declare-var main@%_7_0 Int )
(declare-var main@%_10_0 Int )
(declare-var main@%_11_0 Int )
(declare-var main@%_13_0 Bool )
(declare-var main@%_14_0 Bool )
(declare-var main@%_15_0 Bool )
(declare-var main@%_16_0 Bool )
(declare-var main@%_17_0 Bool )
(declare-var main@%_18_0 Bool )
(declare-var main@%_19_0 Bool )
(declare-var main@%_20_0 Bool )
(declare-var main@precall_0 Bool )
(declare-var main@sortcmp_0 Bool )
(declare-var main@_48_0 Bool )
(declare-var main@_52_0 Bool )
(declare-var main@_56_0 Bool )
(declare-var main@_60_0 Bool )
(declare-var main@_61_0 Bool )
(declare-var main@%_67_0 Int )
(declare-var main@%_73_0 Int )
(declare-var main@_57_0 Bool )
(declare-var main@%_58_0 Int )
(declare-var main@%_59_0 Int )
(declare-var main@_53_0 Bool )
(declare-var main@%_54_0 Int )
(declare-var main@%_55_0 Int )
(declare-var main@_49_0 Bool )
(declare-var main@%_50_0 Int )
(declare-var main@%_51_0 Int )
(declare-var main@_45_0 Bool )
(declare-var main@%_46_0 Int )
(declare-var main@%_47_0 Int )
(declare-var main@_74_0 Bool )
(declare-var |tuple(main@_60_0, main@_74_0)| Bool )
(declare-var main@%.01.i_0 Int )
(declare-var main@%.0.i_0 Int )
(declare-var main@%.01.i_1 Int )
(declare-var main@%.0.i_1 Int )
(declare-var main@%.01.i_2 Int )
(declare-var main@%.0.i_2 Int )
(declare-var main@%.01.i_3 Int )
(declare-var main@%.0.i_3 Int )
(declare-var main@%.01.i_4 Int )
(declare-var main@%.0.i_4 Int )
(declare-var main@%.01.i_5 Int )
(declare-var main@%.0.i_5 Int )
(declare-var main@%.23.i_0 Int )
(declare-var main@%.2.i_0 Int )
(declare-var main@_77_0 Bool )
(declare-var main@%_79_0 Int )
(declare-var main@_80_0 Bool )
(declare-var |tuple(main@_74_0, main@_80_0)| Bool )
(declare-var main@%.56.i_0 Int )
(declare-var main@%.56.i_1 Int )
(declare-var main@_81_0 Bool )
(declare-var main@%_84_0 Int )
(declare-var main@_85_0 Bool )
(declare-var |tuple(main@_80_0, main@_85_0)| Bool )
(declare-var main@%.5.i_0 Int )
(declare-var main@%.5.i_1 Int )
(declare-var main@_95_0 Bool )
(declare-var main@verifier.error_0 Bool )
(declare-var main@verifier.error.split_0 Bool )
(declare-rel p_init (Int Int Int Int Int Int Int Int Int Int Bool Bool Bool Bool Bool Bool Bool Bool))
(declare-rel target (Int Int Int Int Int Int Int Int Int Int Bool Bool Bool Bool Bool Bool Bool Bool))
(rule (forall ((main@%_0_0 Int) (main@%_1_0 Int) (main@%_2_0 Int) (main@%_3_0 Int) (main@%_4_0 Int) (main@%_5_0 Int) (main@%_6_0 Int) (main@%_7_0 Int) (main@%_10_0 Int) (main@%_11_0 Int) (main@%_13_0 Bool) (main@%_14_0 Bool) (main@%_15_0 Bool) (main@%_16_0 Bool) (main@%_17_0 Bool) (main@%_18_0 Bool) (main@%_19_0 Bool) (main@%_20_0 Bool)) (target main@%_0_0 main@%_1_0 main@%_2_0 main@%_3_0 main@%_4_0 main@%_5_0 main@%_6_0 main@%_7_0 main@%_10_0 main@%_11_0 main@%_13_0 main@%_14_0 main@%_15_0 main@%_16_0 main@%_17_0 main@%_18_0 main@%_19_0 main@%_20_0)))
(rule (forall ((main@%_0_0 Int) (main@%_1_0 Int) (main@%_2_0 Int) (main@%_3_0 Int) (main@%_4_0 Int) (main@%_5_0 Int) (main@%_6_0 Int) (main@%_7_0 Int) (main@%_10_0 Int) (main@%_11_0 Int) (main@%_13_0 Bool) (main@%_14_0 Bool) (main@%_15_0 Bool) (main@%_16_0 Bool) (main@%_17_0 Bool) (main@%_18_0 Bool) (main@%_19_0 Bool) (main@%_20_0 Bool)) (=> (target main@%_0_0 main@%_1_0 main@%_2_0 main@%_3_0 main@%_4_0 main@%_5_0 main@%_6_0 main@%_7_0 main@%_10_0 main@%_11_0 main@%_13_0 main@%_14_0 main@%_15_0 main@%_16_0 main@%_17_0 main@%_18_0 main@%_19_0 main@%_20_0) (p_init main@%_0_0 main@%_1_0 main@%_2_0 main@%_3_0 main@%_4_0 main@%_5_0 main@%_6_0 main@%_7_0 main@%_10_0 main@%_11_0 main@%_13_0 main@%_14_0 main@%_15_0 main@%_16_0 main@%_17_0 main@%_18_0 main@%_19_0 main@%_20_0))))
(rule (verifier.error false false false))
(rule (verifier.error false true true))
(rule (verifier.error true false true))
(rule (verifier.error true true true))
(rule main@entry)
(rule (let ((a!1 (and main@entry
                (p_init main@%_0_0 main@%_1_0 main@%_2_0 main@%_3_0 main@%_4_0 main@%_5_0 main@%_6_0 main@%_7_0 main@%_10_0 main@%_11_0 main@%_13_0 main@%_14_0 main@%_15_0 main@%_16_0 main@%_17_0 main@%_18_0 main@%_19_0 main@%_20_0)
                true
                main@%_20_0
                (= main@%_21_0 (ite main@%_19_0 main@%_20_0 false))
                (= main@%_22_0 (xor main@%_21_0 true))
                main@%_22_0
                (= main@%_23_0 (xor main@%_19_0 true))
                main@%_23_0
                (= main@%_24_0 (xor main@%_19_0 true))
                main@%_24_0
                (= main@%_25_0 (xor main@%_19_0 true))
                main@%_25_0
                (= main@%_26_0 (xor main@%_19_0 true))
                main@%_26_0
                (= main@%_27_0 (xor main@%_19_0 true))
                main@%_27_0
                (= main@%_28_0 (xor main@%_19_0 true))
                main@%_28_0
                (= main@%_29_0 (xor main@%_19_0 true))
                main@%_29_0
                (= main@%_30_0 (xor main@%_19_0 true))
                main@%_30_0
                (= main@%_31_0 (xor main@%_19_0 true))
                main@%_31_0
                (= main@%_32_0 (xor main@%_19_0 true))
                main@%_32_0
                (= main@%_33_0 (xor main@%_19_0 true))
                main@%_33_0
                (= main@%_34_0 (xor main@%_19_0 true))
                main@%_34_0
                (= main@%_35_0 (xor main@%_19_0 true))
                main@%_35_0
                (= main@%_36_0 (xor main@%_19_0 true))
                main@%_36_0
                (= main@%_37_0 (xor main@%_19_0 true))
                main@%_37_0
                (= main@%_38_0 (xor main@%_19_0 true))
                main@%_38_0
                (= main@%_39_0 (xor main@%_19_0 true))
                main@%_39_0
                (= main@%_40_0 (xor main@%_19_0 true))
                main@%_40_0
                (= main@%_41_0 (xor main@%_19_0 true))
                main@%_41_0
                (= main@%_42_0 (xor main@%_19_0 true))
                main@%_42_0
                (= main@%_43_0 (xor main@%_19_0 true))
                main@%_43_0
                (not main@%_44_0)
                (=> main@precall_0 (and main@precall_0 main@entry_0))
                (=> main@sortcmp_0 (and main@sortcmp_0 main@precall_0))
                (=> main@_48_0 (and main@_48_0 main@sortcmp_0))
                (=> (and main@_48_0 main@sortcmp_0) (not main@%_13_0))
                (=> main@_52_0 (and main@_52_0 main@_48_0))
                (=> (and main@_52_0 main@_48_0) (not main@%_14_0))
                (=> main@_56_0 (and main@_56_0 main@_52_0))
                (=> (and main@_56_0 main@_52_0) (not main@%_15_0))
                (=> main@_60_0 (and main@_60_0 main@_56_0))
                (=> (and main@_60_0 main@_56_0) (not main@%_16_0))
                (=> main@_61_0 (and main@_61_0 main@_60_0))
                (=> (and main@_61_0 main@_60_0) main@%_17_0)
                (=> main@_61_0 (= main@%_63_0 (= main@%_62_0 16384)))
                (=> main@_61_0 (= main@%_64_0 (ite main@%_63_0 1 0)))
                (=> main@_61_0 (= main@%_66_0 (= main@%_65_0 16384)))
                (=> main@_61_0 (= main@%.neg.i_0 (ite main@%_66_0 (- 1) 0)))
                (=> main@_61_0 (= main@%_67_0 (+ main@%.neg.i_0 main@%_64_0)))
                (=> main@_61_0 (= main@%_69_0 (= main@%_68_0 16384)))
                (=> main@_61_0 (= main@%_70_0 (ite main@%_69_0 1 0)))
                (=> main@_61_0 (= main@%_72_0 (= main@%_71_0 16384)))
                (=> main@_61_0 (= main@%.neg8.i_0 (ite main@%_72_0 (- 1) 0)))
                (=> main@_61_0 (= main@%_73_0 (+ main@%.neg8.i_0 main@%_70_0)))
                (=> main@_57_0 (and main@_57_0 main@_56_0))
                (=> (and main@_57_0 main@_56_0) main@%_16_0)
                (=> main@_57_0 (= main@%_58_0 (- main@%_7_0 main@%_6_0)))
                (=> main@_57_0 (= main@%_59_0 (- main@%_7_0 main@%_6_0)))
                (=> main@_53_0 (and main@_53_0 main@_52_0))
                (=> (and main@_53_0 main@_52_0) main@%_15_0)
                (=> main@_53_0 (= main@%_54_0 (+ main@%_5_0 main@%_4_0)))
                (=> main@_53_0 (= main@%_55_0 (- main@%_5_0 main@%_4_0)))
                (=> main@_49_0 (and main@_49_0 main@_48_0))
                (=> (and main@_49_0 main@_48_0) main@%_14_0)
                (=> main@_49_0 (= main@%_50_0 (+ main@%_3_0 main@%_2_0)))
                (=> main@_49_0 (= main@%_51_0 (- main@%_3_0 main@%_2_0)))
                (=> main@_45_0 (and main@_45_0 main@sortcmp_0))
                (=> (and main@_45_0 main@sortcmp_0) main@%_13_0)
                (=> main@_45_0 (= main@%_46_0 (+ main@%_1_0 main@%_0_0)))
                (=> main@_45_0 (= main@%_47_0 (- main@%_1_0 main@%_0_0)))
                (=> |tuple(main@_60_0, main@_74_0)| main@_60_0)
                (=> main@_74_0
                    (or (and main@_74_0 main@_61_0)
                        |tuple(main@_60_0, main@_74_0)|
                        (and main@_74_0 main@_57_0)
                        (and main@_74_0 main@_53_0)
                        (and main@_74_0 main@_49_0)
                        (and main@_74_0 main@_45_0)))
                (=> |tuple(main@_60_0, main@_74_0)| (not main@%_17_0))
                (=> (and main@_74_0 main@_61_0) (= main@%.01.i_0 main@%_67_0))
                (=> (and main@_74_0 main@_61_0) (= main@%.0.i_0 main@%_73_0))
                (=> |tuple(main@_60_0, main@_74_0)| (= main@%.01.i_1 0))
                (=> |tuple(main@_60_0, main@_74_0)| (= main@%.0.i_1 0))
                (=> (and main@_74_0 main@_57_0) (= main@%.01.i_2 main@%_58_0))
                (=> (and main@_74_0 main@_57_0) (= main@%.0.i_2 main@%_59_0))
                (=> (and main@_74_0 main@_53_0) (= main@%.01.i_3 main@%_54_0))
                (=> (and main@_74_0 main@_53_0) (= main@%.0.i_3 main@%_55_0))
                (=> (and main@_74_0 main@_49_0) (= main@%.01.i_4 main@%_50_0))
                (=> (and main@_74_0 main@_49_0) (= main@%.0.i_4 main@%_51_0))
                (=> (and main@_74_0 main@_45_0) (= main@%.01.i_5 main@%_46_0))
                (=> (and main@_74_0 main@_45_0) (= main@%.0.i_5 main@%_47_0))
                (=> (and main@_74_0 main@_61_0) (= main@%.01.i_6 main@%.01.i_0))
                (=> (and main@_74_0 main@_61_0) (= main@%.0.i_6 main@%.0.i_0))
                (=> |tuple(main@_60_0, main@_74_0)|
                    (= main@%.01.i_6 main@%.01.i_1))
                (=> |tuple(main@_60_0, main@_74_0)|
                    (= main@%.0.i_6 main@%.0.i_1))
                (=> (and main@_74_0 main@_57_0) (= main@%.01.i_6 main@%.01.i_2))
                (=> (and main@_74_0 main@_57_0) (= main@%.0.i_6 main@%.0.i_2))
                (=> (and main@_74_0 main@_53_0) (= main@%.01.i_6 main@%.01.i_3))
                (=> (and main@_74_0 main@_53_0) (= main@%.0.i_6 main@%.0.i_3))
                (=> (and main@_74_0 main@_49_0) (= main@%.01.i_6 main@%.01.i_4))
                (=> (and main@_74_0 main@_49_0) (= main@%.0.i_6 main@%.0.i_4))
                (=> (and main@_74_0 main@_45_0) (= main@%.01.i_6 main@%.01.i_5))
                (=> (and main@_74_0 main@_45_0) (= main@%.0.i_6 main@%.0.i_5))
                (=> main@_74_0 (= main@%_75_0 (= main@%.01.i_6 0)))
                (=> main@_74_0
                    (= main@%spec.select12.v.i_0
                       (ite main@%_19_0 main@%_10_0 main@%_11_0)))
                (=> main@_74_0
                    (= main@%spec.select12.i_0 main@%spec.select12.v.i_0))
                (=> main@_74_0
                    (= main@%.23.i_0
                       (ite main@%_75_0 main@%spec.select12.i_0 main@%.01.i_6)))
                (=> main@_74_0 (= main@%_76_0 (= main@%.0.i_6 0)))
                (=> main@_74_0
                    (= main@%spec.select13.v.i_0
                       (ite main@%_19_0 main@%_10_0 main@%_11_0)))
                (=> main@_74_0
                    (= main@%spec.select13.i_0 main@%spec.select13.v.i_0))
                (=> main@_74_0
                    (= main@%.2.i_0
                       (ite main@%_76_0 main@%spec.select13.i_0 main@%.0.i_6)))
                (=> main@_74_0 (= main@%.not.i_0 (= main@%.23.i_0 0)))
                (=> main@_77_0 (and main@_77_0 main@_74_0))
                (=> (and main@_77_0 main@_74_0) (not main@%.not.i_0))
                (=> main@_77_0 (= main@%.45.i_0 (div main@%.23.i_0 4294967296)))
                (=> main@_77_0 (= main@%_78_0 (rem main@%.45.i_0 2)))
                (=> main@_77_0 (= main@%_79_0 (+ main@%.45.i_0 main@%_78_0)))
                (=> |tuple(main@_74_0, main@_80_0)| main@_74_0)
                (=> main@_80_0
                    (or (and main@_80_0 main@_77_0)
                        |tuple(main@_74_0, main@_80_0)|))
                (=> |tuple(main@_74_0, main@_80_0)| main@%.not.i_0)
                (=> (and main@_80_0 main@_77_0) (= main@%.56.i_0 main@%_79_0))
                (=> |tuple(main@_74_0, main@_80_0)|
                    (= main@%.56.i_1 main@%.23.i_0))
                (=> (and main@_80_0 main@_77_0) (= main@%.56.i_2 main@%.56.i_0))
                (=> |tuple(main@_74_0, main@_80_0)|
                    (= main@%.56.i_2 main@%.56.i_1))
                (=> main@_80_0 (= main@%.not7.i_0 (= main@%.2.i_0 0)))
                (=> main@_81_0 (and main@_81_0 main@_80_0))
                (=> (and main@_81_0 main@_80_0) (not main@%.not7.i_0))
                (=> main@_81_0 (= main@%_82_0 (div main@%.2.i_0 4294967296)))
                (=> main@_81_0 (= main@%.4.i_0 (ite main@%_20_0 main@%_82_0 0)))
                (=> main@_81_0 (= main@%_83_0 (rem main@%.4.i_0 2)))
                (=> main@_81_0 (= main@%_84_0 (+ main@%.4.i_0 main@%_83_0)))
                (=> |tuple(main@_80_0, main@_85_0)| main@_80_0)
                (=> main@_85_0
                    (or (and main@_85_0 main@_81_0)
                        |tuple(main@_80_0, main@_85_0)|))
                (=> |tuple(main@_80_0, main@_85_0)| main@%.not7.i_0)
                (=> (and main@_85_0 main@_81_0) (= main@%.5.i_0 main@%_84_0))
                (=> |tuple(main@_80_0, main@_85_0)|
                    (= main@%.5.i_1 main@%.2.i_0))
                (=> (and main@_85_0 main@_81_0) (= main@%.5.i_2 main@%.5.i_0))
                (=> |tuple(main@_80_0, main@_85_0)|
                    (= main@%.5.i_2 main@%.5.i_1))
                (=> main@_85_0 (= main@%_86_0 main@%.56.i_2))
                (=> main@_85_0 (= main@%_87_0 (- 0 main@%_86_0)))
                (=> main@_85_0 (= main@%_88_0 main@%.56.i_2))
                (=> main@_85_0
                    (= main@%_89_0 (ite main@%_18_0 main@%_87_0 main@%_88_0)))
                (=> main@_85_0 (= main@%_90_0 main@%.5.i_2))
                (=> main@_85_0 (= main@%_91_0 (- 0 main@%_90_0)))
                (=> main@_85_0 (= main@%_92_0 main@%.5.i_2))
                (=> main@_85_0
                    (= main@%_93_0 (ite main@%_18_0 main@%_91_0 main@%_92_0)))
                (=> main@_85_0 (= main@%_94_0 (= main@%_89_0 main@%_93_0)))
                (=> main@_85_0 (not main@%_94_0))
                (=> main@_95_0 (and main@_95_0 main@_85_0))
                (=> main@verifier.error_0
                    (and main@verifier.error_0 main@_95_0))
                (=> main@verifier.error.split_0
                    (and main@verifier.error.split_0 main@verifier.error_0))
                main@verifier.error.split_0)))
  (=> a!1 main@verifier.error.split)))
(query main@verifier.error.split)

